
******************************************************************************
This program contains Ipopt, a library for large-scale nonlinear optimization.
 Ipopt is released as open source code under the Eclipse Public License (EPL).
         For more information visit http://projects.coin-or.org/Ipopt

This version of Ipopt was compiled from source code available at
    https://github.com/IDAES/Ipopt as part of the Institute for the Design of
    Advanced Energy Systems Process Systems Engineering Framework (IDAES PSE
    Framework) Copyright (c) 2018-2019. See https://github.com/IDAES/idaes-pse.

This version of Ipopt was compiled using HSL, a collection of Fortran codes
    for large-scale scientific computation.  All technical papers, sales and
    publicity material resulting from use of the HSL codes within IPOPT must
    contain the following acknowledgement:
        HSL, a collection of Fortran codes for large-scale scientific
        computation. See http://www.hsl.rl.ac.uk.
******************************************************************************

This is Ipopt version 3.13.2, running with linear solver ma27.

Number of nonzeros in equality constraint Jacobian...:      808
Number of nonzeros in inequality constraint Jacobian.:        0
Number of nonzeros in Lagrangian Hessian.............:      702

Total number of variables............................:      351
                     variables with only lower bounds:      108
                variables with lower and upper bounds:      189
                     variables with only upper bounds:        0
Total number of equality constraints.................:      350
Total number of inequality constraints...............:        0
        inequality constraints with only lower bounds:        0
   inequality constraints with lower and upper bounds:        0
        inequality constraints with only upper bounds:        0

iter    objective    inf_pr   inf_du lg(mu)  ||d||  lg(rg) alpha_du alpha_pr  ls
   0  0.0000000e+00 2.53e+00 8.88e-16  -1.0 0.00e+00    -  0.00e+00 0.00e+00   0
   1  1.9174944e-02 2.25e+00 5.34e+04  -1.0 6.39e+04    -  8.72e-02 1.51e-01h  1
   2  2.6355538e-02 2.19e+00 5.18e+04  -1.0 5.47e+04    -  1.70e-01 3.03e-02h  1
   3  2.7693635e-02 2.18e+00 5.16e+04  -1.0 1.18e+05    -  8.55e-01 4.70e-03h  1
   4  2.0294746e+00 1.41e+00 2.66e+04  -1.0 1.23e+05    -  2.81e-01 9.90e-01h  1
   5  2.7921194e+00 9.59e-01 9.61e+03  -1.0 3.08e+04    -  5.38e-01 9.90e-01h  1
   6  2.8094286e+00 1.28e-01 2.78e+02  -1.0 8.61e+02    -  9.88e-01 9.90e-01h  1
   7  2.8112541e+00 4.19e-03 3.57e+01  -1.0 6.47e+01    -  9.90e-01 9.90e-01h  1
   8  2.8220371e+00 4.52e-05 9.91e+02  -1.7 3.64e+02    -  9.90e-01 9.90e-01h  1
   9  2.8158214e+00 2.26e-05 9.17e+07  -3.8 4.16e+02    -  1.00e+00 5.00e-01h  2
iter    objective    inf_pr   inf_du lg(mu)  ||d||  lg(rg) alpha_du alpha_pr  ls
  10  2.8097170e+00 3.56e-06 6.90e+04  -3.8 2.04e+02    -  1.00e+00 1.00e+00h  1
In iteration 10, 27 Slacks too small, adjusting variable bounds
  11  2.8097141e+00 5.34e-10 3.67e+08  -3.8 8.87e-02    -  1.00e+00 1.00e+00h  1
  12  2.8097141e+00 8.91e-13 1.80e-04  -3.8 1.32e-05    -  1.00e+00 1.00e+00h  1
  13  2.8095637e+00 2.73e-13 9.07e+04  -9.0 5.04e+00    -  1.00e+00 1.00e+00F  1
  14  2.8095637e+00 8.72e-13 1.55e-11  -9.0 3.05e-05    -  1.00e+00 1.00e+00f  1

Number of Iterations....: 14

                                   (scaled)                 (unscaled)
Objective...............:   2.8095636536314377e+00    2.8095636536314377e+00
Dual infeasibility......:   1.5461409930139780e-11    1.5461409930139780e-11
Constraint violation....:   8.7152507433074788e-13    8.7152507433074788e-13
Complementarity.........:   9.0909090909110628e-10    9.0909090909110628e-10
Overall NLP error.......:   3.3667158632996944e-10    9.0909090909110628e-10


Number of objective function evaluations             = 17
Number of objective gradient evaluations             = 15
Number of equality constraint evaluations            = 17
Number of inequality constraint evaluations          = 0
Number of equality constraint Jacobian evaluations   = 15
Number of inequality constraint Jacobian evaluations = 0
Number of Lagrangian Hessian evaluations             = 14
Total CPU secs in IPOPT (w/o function evaluations)   =      0.038
Total CPU secs in NLP function evaluations           =      0.307

EXIT: Optimal Solution Found.
